# Solution for model GasLib-40
# Objective value = 7.0033481477172913e+01
loadshed[innode_1] 0
loadshed[innode_2] 0
loadshed[innode_3] 0
loadshed[innode_4] 0
loadshed[innode_5] 0
loadshed[innode_6] 0
loadshed[innode_7] 0
loadshed[innode_8] 0
loadshed[source_1] -6.3167161819261963e-02
loadshed[source_2] 9.3483663298525421e-02
loadshed[source_3] 4.1268026253173251e-01
loadshed[sink_1] 4.9269313118667923e-01
loadshed[sink_2] 0
loadshed[sink_3] 0
loadshed[sink_4] 0
loadshed[sink_5] 8.4566928355954185e-01
loadshed[sink_6] 0
loadshed[sink_7] 0
loadshed[sink_8] 0
loadshed[sink_9] 0
loadshed[sink_10] 0
loadshed[sink_11] 0
loadshed[sink_12] 1
loadshed[sink_13] 0
loadshed[sink_14] 0
loadshed[sink_15] 0
loadshed[sink_16] 0
loadshed[sink_17] 0
loadshed[sink_18] 0
loadshed[sink_19] 0
loadshed[sink_20] 0
loadshed[sink_21] 1
loadshed[sink_22] 0
loadshed[sink_23] 0
loadshed[sink_24] 0.943939637361167
loadshed[sink_25] 0
loadshed[sink_26] 0
loadshed[sink_27] 0
loadshed[sink_28] 0
loadshed[sink_29] 0
flow[source_1,sink_3] 1.6807639193621873e+02
flow[innode_1,sink_16] 1.6354166666666970e+01
flow[innode_6,sink_13] 2.1629626225950279e+01
flow[sink_13,sink_14] 5.2754595592836111e+00
flow[sink_14,sink_10] -1.1078707107383025e+01
flow[sink_25,sink_26] 0
flow[sink_26,sink_9] 9.3508185189493744e+01
flow[sink_9,sink_18] 7.7154018522827073e+01
flow[sink_26,sink_4] -1.0986235185616036e+02
flow[sink_4,sink_20] -9.7159724394703531e+01
flow[sink_18,sink_6] 60.7998518561604
flow[sink_25,innode_8] -1.3536805860288234e+02
flow[sink_6,sink_7] 1.9794937439109248e+01
flow[sink_6,sink_22] 2.4650747750384518e+01
flow[sink_7,sink_24] 9.1682051398924824e-01
flow[sink_22,sink_1] 8.29658108371785
flow[sink_24,sink_21] 0
flow[sink_21,sink_12] 0
flow[sink_7,sink_5] 2.5239502584533264e+00
flow[sink_5,sink_17] 0
flow[sink_17,sink_4] 2.9056794128123510e+01
flow[sink_17,sink_8] -4.5410960794790171e+01
flow[sink_3,sink_23] 16.3541666666697
flow[sink_8,sink_20] -6.1765127461456842e+01
flow[sink_25,sink_20] 1.7527901852282704e+02
flow[sink_25,sink_15] -7.7894752812561748e+01
flow[sink_15,sink_29] -5.3709661442894394e+01
flow[sink_29,sink_28] 1.6354166666667879e+01
flow[sink_29,sink_2] 5.6893424703000690e+01
flow[sink_2,sink_15] 4.0539258036334026e+01
flow[sink_29,innode_7] -1.4331141947922964e+02
flow[innode_4,sink_19] 9.2849540440729925e+01
flow[sink_19,innode_3] 2.9348655212505985e+01
flow[innode_4,innode_5] 0
flow[sink_27,innode_5] 0
flow[sink_27,sink_19] -1.6354166666679703e+01
flow[sink_10,sink_11] 3.2708333333333641e+01
flow[sink_10,innode_2] -3.0792551894877572e+01
flow[sink_10,innode_3] -2.9348655212505985e+01
flow[innode_6,sink_25] -2.1629626225950279e+01
flow[sink_11,innode_1] 1.6354166666666970e+01
flow[sink_19,innode_2] 3.0792551894877572e+01
flow[source_3,innode_4] 9.2849540440729925e+01
flow[source_2,innode_7] 1.4331141947922964e+02
flow[sink_3,innode_8] 1.3536805860288234e+02
pressure[innode_1] 7.5472463682116228e+01
pressure[innode_2] 7.7251678534768587e+01
pressure[innode_3] 7.7186689261175175e+01
pressure[innode_4] 81.01325
pressure[innode_5] 7.6900548537625085e+01
pressure[innode_6] 7.5228839098651278e+01
pressure[innode_7] 81.01325
pressure[innode_8] 80.4514348292662
pressure[source_1] 81.01325
pressure[source_2] 81.01325
pressure[source_3] 81.01325
pressure[sink_1] 1.0132500000000002e+00
pressure[sink_2] 75.7390562949202
pressure[sink_3] 80.4514348292662
pressure[sink_4] 2.6314767873433603e+01
pressure[sink_5] 1.01325
pressure[sink_6] 2.3346784822200370e+00
pressure[sink_7] 2.0629411751705633e+00
pressure[sink_8] 2.9138696258756063e+01
pressure[sink_9] 6.7498779004077134e+00
pressure[sink_10] 7.5624164989719773e+01
pressure[sink_11] 7.5472463682116228e+01
pressure[sink_12] 1.01325
pressure[sink_13] 7.5109598583913950e+01
pressure[sink_14] 7.5100157699662816e+01
pressure[sink_15] 7.5606704552140130e+01
pressure[sink_16] 7.4450813847298548e+01
pressure[sink_17] 2.7425222733193522e+01
pressure[sink_18] 3.9582155517281956e+00
pressure[sink_19] 7.7251678534768587e+01
pressure[sink_20] 3.3442857023091193e+01
pressure[sink_21] 1.01325
pressure[sink_22] 1.5529073927483421e+00
pressure[sink_23] 8.0286716817606418e+01
pressure[sink_24] 1.01325
pressure[sink_25] 7.5228839098651278e+01
pressure[sink_26] 1.2346584121981497e+01
pressure[sink_27] 7.6900548537625085e+01
pressure[sink_28] 7.6884948677154213e+01
pressure[sink_29] 77.1802309507714
interdiction[source_1,sink_3] 0
interdiction[innode_1,sink_16] 0
interdiction[innode_6,sink_13] 0
interdiction[sink_13,sink_14] 0
interdiction[sink_14,sink_10] 0
interdiction[sink_25,sink_26] 1
interdiction[sink_26,sink_9] 0
interdiction[sink_9,sink_18] 0
interdiction[sink_26,sink_4] 0
interdiction[sink_4,sink_20] 0
interdiction[sink_18,sink_6] 0
interdiction[sink_25,innode_8] 0
interdiction[sink_6,sink_7] 0
interdiction[sink_6,sink_22] 0
interdiction[sink_7,sink_24] 0
interdiction[sink_22,sink_1] 0
interdiction[sink_24,sink_21] 0
interdiction[sink_21,sink_12] 0
interdiction[sink_7,sink_5] 0
interdiction[sink_5,sink_17] 1
interdiction[sink_17,sink_4] 0
interdiction[sink_17,sink_8] 0
interdiction[sink_3,sink_23] 0
interdiction[sink_8,sink_20] 0
interdiction[sink_25,sink_20] 0
interdiction[sink_25,sink_15] 0
interdiction[sink_15,sink_29] 0
interdiction[sink_29,sink_28] 0
interdiction[sink_29,sink_2] 0
interdiction[sink_2,sink_15] 0
interdiction[sink_29,innode_7] 0
interdiction[innode_4,sink_19] 0
interdiction[sink_19,innode_3] 0
interdiction[innode_4,innode_5] 1
interdiction[sink_27,innode_5] 0
interdiction[sink_27,sink_19] 0
interdiction[sink_10,sink_11] 0
interdiction[sink_10,innode_2] 0
interdiction[sink_10,innode_3] 0
interdiction[innode_6,sink_25] 0
interdiction[sink_11,innode_1] 0
interdiction[sink_19,innode_2] 0
interdiction[source_3,innode_4] 0
interdiction[source_2,innode_7] 0
interdiction[sink_3,innode_8] 0
WCcheckFlow[source_1,sink_3] 39
WCcheckFlow[innode_1,sink_16] 1
WCcheckFlow[innode_6,sink_13] 13
WCcheckFlow[sink_13,sink_14] 12
WCcheckFlow[sink_14,sink_10] 11
WCcheckFlow[sink_25,sink_26] 0
WCcheckFlow[sink_26,sink_9] 10
WCcheckFlow[sink_9,sink_18] 9
WCcheckFlow[sink_26,sink_4] -11
WCcheckFlow[sink_4,sink_20] -14
WCcheckFlow[sink_18,sink_6] 8
WCcheckFlow[sink_25,innode_8] -36
WCcheckFlow[sink_6,sink_7] 5
WCcheckFlow[sink_6,sink_22] 2
WCcheckFlow[sink_7,sink_24] 3
WCcheckFlow[sink_22,sink_1] 1
WCcheckFlow[sink_24,sink_21] 2
WCcheckFlow[sink_21,sink_12] 1
WCcheckFlow[sink_7,sink_5] 1
WCcheckFlow[sink_5,sink_17] 0
WCcheckFlow[sink_17,sink_4] -2
WCcheckFlow[sink_17,sink_8] 1
WCcheckFlow[sink_3,sink_23] 1
WCcheckFlow[sink_8,sink_20] 0
WCcheckFlow[sink_25,sink_20] 15
WCcheckFlow[sink_25,sink_15] 6
WCcheckFlow[sink_15,sink_29] 5
WCcheckFlow[sink_29,sink_28] 1
WCcheckFlow[sink_29,sink_2] 1
WCcheckFlow[sink_2,sink_15] 0
WCcheckFlow[sink_29,innode_7] 2
WCcheckFlow[innode_4,sink_19] -2
WCcheckFlow[sink_19,innode_3] -5
WCcheckFlow[innode_4,innode_5] 0
WCcheckFlow[sink_27,innode_5] 1
WCcheckFlow[sink_27,sink_19] -2
WCcheckFlow[sink_10,sink_11] 3
WCcheckFlow[sink_10,innode_2] 1
WCcheckFlow[sink_10,innode_3] 6
WCcheckFlow[innode_6,sink_25] -14
WCcheckFlow[sink_11,innode_1] 2
WCcheckFlow[sink_19,innode_2] 0
WCcheckFlow[source_3,innode_4] -1
WCcheckFlow[source_2,innode_7] -1
WCcheckFlow[sink_3,innode_8] 37
